experiment/data/lkh-res/Vrp-Set-Li-n801/Vrp-Set-Li-n801-lkh/0.lkh1.log
PARAMETER_FILE = baseline_results/cvrp_lkh/Vrp-Set-Li-n801/Vrp-Set-Li-n801-lkh/0.lkh1.par
Reading PROBLEM_FILE: "baseline_results/cvrp_lkh/Vrp-Set-Li-n801/Vrp-Set-Li-n801-lkh/0.lkh1.vrp" ... done
ASCENT_CANDIDATES = 50
BACKBONE_TRIALS = 0
BACKTRACKING = NO
# BWTSP =
# CANDIDATE_FILE =
CANDIDATE_SET_TYPE = ALPHA
# DISTANCE =
DEPOT = 1
# EDGE_FILE =
EXCESS = 0.00124844
EXTERNAL_SALESMEN = 0
EXTRA_CANDIDATES = 0 
EXTRA_CANDIDATE_SET_TYPE = QUADRANT
GAIN23 = NO
GAIN_CRITERION = YES
INITIAL_PERIOD = 400
INITIAL_STEP_SIZE = 1
INITIAL_TOUR_ALGORITHM = WALK
# INITIAL_TOUR_FILE = 
INITIAL_TOUR_FRACTION = 1.000
# INPUT_TOUR_FILE = 
KICK_TYPE = 4
KICKS = 1
# MAX_BREADTH =
MAKESPAN = NO
MAX_CANDIDATES = 5 
MAX_SWAPS = 0
MAX_TRIALS = 10000
# MERGE_TOUR_FILE =
MOVE_TYPE = 5 SPECIAL
MTSP_MIN_SIZE = 1
MTSP_MAX_SIZE = 800
# MTSP_SOLUTION_FILE = 
# NONSEQUENTIAL_MOVE_TYPE = 5
# OPTIMUM =
OUTPUT_TOUR_FILE = baseline_results/cvrp_lkh/Vrp-Set-Li-n801/Vrp-Set-Li-n801-lkh/0.lkh1.tour
PATCHING_A = 1 
PATCHING_C = 0 
# PI_FILE = 
POPMUSIC_INITIAL_TOUR = NO
POPMUSIC_MAX_NEIGHBORS = 5
POPMUSIC_SAMPLE_SIZE = 10
POPMUSIC_SOLUTIONS = 50
POPMUSIC_TRIALS = 1
POPULATION_SIZE = 10
PRECISION = 100
PROBLEM_FILE = baseline_results/cvrp_lkh/Vrp-Set-Li-n801/Vrp-Set-Li-n801-lkh/0.lkh1.vrp
RECOMBINATION = IPT
RESTRICTED_SEARCH = YES
RUNS = 1
SALESMEN = 10
SCALE = 1
SEED = 1234
# SINTEF_SOLUTION_FILE = 
STOP_AT_OPTIMUM = YES
SUBGRADIENT = YES
# SUBPROBLEM_SIZE =
# SUBPROBLEM_TOUR_FILE = 
SUBSEQUENT_MOVE_TYPE = 5 SPECIAL
SUBSEQUENT_PATCHING = YES
# TIME_LIMIT =
# TOTAL_TIME_LIMIT =
# TOUR_FILE = 
TRACE_LEVEL = 1
VEHICLES = 10

Lower bound = 2274201.9, Ascent time = 0.65 sec.
Cand.min = 2, Cand.avg = 5.0, Cand.max = 5
Preprocessing time = 0.66 sec.
* 1: Cost = 0_2535919, Time = 0.19 sec. 
Writing OUTPUT_TOUR_FILE: "baseline_results/cvrp_lkh/Vrp-Set-Li-n801/Vrp-Set-Li-n801-lkh/0.lkh1.tour" ... done
* 7: Cost = 0_2526367, Time = 0.26 sec. 
Writing OUTPUT_TOUR_FILE: "baseline_results/cvrp_lkh/Vrp-Set-Li-n801/Vrp-Set-Li-n801-lkh/0.lkh1.tour" ... done
* 20: Cost = 0_2516546, Time = 0.27 sec. 
Writing OUTPUT_TOUR_FILE: "baseline_results/cvrp_lkh/Vrp-Set-Li-n801/Vrp-Set-Li-n801-lkh/0.lkh1.tour" ... done
* 30: Cost = 0_2512584, Time = 0.36 sec. 
Writing OUTPUT_TOUR_FILE: "baseline_results/cvrp_lkh/Vrp-Set-Li-n801/Vrp-Set-Li-n801-lkh/0.lkh1.tour" ... done
* 38: Cost = 0_2486877, Time = 0.38 sec. 
Writing OUTPUT_TOUR_FILE: "baseline_results/cvrp_lkh/Vrp-Set-Li-n801/Vrp-Set-Li-n801-lkh/0.lkh1.tour" ... done
* 42: Cost = 0_2485698, Time = 0.39 sec. 
Writing OUTPUT_TOUR_FILE: "baseline_results/cvrp_lkh/Vrp-Set-Li-n801/Vrp-Set-Li-n801-lkh/0.lkh1.tour" ... done
* 47: Cost = 0_2484520, Time = 0.40 sec. 
Writing OUTPUT_TOUR_FILE: "baseline_results/cvrp_lkh/Vrp-Set-Li-n801/Vrp-Set-Li-n801-lkh/0.lkh1.tour" ... done
* 54: Cost = 0_2474146, Time = 0.41 sec. 
Writing OUTPUT_TOUR_FILE: "baseline_results/cvrp_lkh/Vrp-Set-Li-n801/Vrp-Set-Li-n801-lkh/0.lkh1.tour" ... done
* 56: Cost = 0_2470218, Time = 0.42 sec. 
Writing OUTPUT_TOUR_FILE: "baseline_results/cvrp_lkh/Vrp-Set-Li-n801/Vrp-Set-Li-n801-lkh/0.lkh1.tour" ... done
* 61: Cost = 0_2467227, Time = 0.42 sec. 
Writing OUTPUT_TOUR_FILE: "baseline_results/cvrp_lkh/Vrp-Set-Li-n801/Vrp-Set-Li-n801-lkh/0.lkh1.tour" ... done
* 65: Cost = 0_2466405, Time = 0.43 sec. 
Writing OUTPUT_TOUR_FILE: "baseline_results/cvrp_lkh/Vrp-Set-Li-n801/Vrp-Set-Li-n801-lkh/0.lkh1.tour" ... done
* 80: Cost = 0_2465527, Time = 0.44 sec. 
Writing OUTPUT_TOUR_FILE: "baseline_results/cvrp_lkh/Vrp-Set-Li-n801/Vrp-Set-Li-n801-lkh/0.lkh1.tour" ... done
* 91: Cost = 0_2464167, Time = 0.45 sec. 
Writing OUTPUT_TOUR_FILE: "baseline_results/cvrp_lkh/Vrp-Set-Li-n801/Vrp-Set-Li-n801-lkh/0.lkh1.tour" ... done
* 95: Cost = 0_2464030, Time = 0.47 sec. 
Writing OUTPUT_TOUR_FILE: "baseline_results/cvrp_lkh/Vrp-Set-Li-n801/Vrp-Set-Li-n801-lkh/0.lkh1.tour" ... done
* 97: Cost = 0_2462424, Time = 0.48 sec. 
Writing OUTPUT_TOUR_FILE: "baseline_results/cvrp_lkh/Vrp-Set-Li-n801/Vrp-Set-Li-n801-lkh/0.lkh1.tour" ... done
* 98: Cost = 0_2462278, Time = 0.48 sec. 
Writing OUTPUT_TOUR_FILE: "baseline_results/cvrp_lkh/Vrp-Set-Li-n801/Vrp-Set-Li-n801-lkh/0.lkh1.tour" ... done
* 101: Cost = 0_2461431, Time = 0.49 sec. 
Writing OUTPUT_TOUR_FILE: "baseline_results/cvrp_lkh/Vrp-Set-Li-n801/Vrp-Set-Li-n801-lkh/0.lkh1.tour" ... done
* 102: Cost = 0_2459415, Time = 0.49 sec. 
Writing OUTPUT_TOUR_FILE: "baseline_results/cvrp_lkh/Vrp-Set-Li-n801/Vrp-Set-Li-n801-lkh/0.lkh1.tour" ... done
* 103: Cost = 0_2458586, Time = 0.49 sec. 
Writing OUTPUT_TOUR_FILE: "baseline_results/cvrp_lkh/Vrp-Set-Li-n801/Vrp-Set-Li-n801-lkh/0.lkh1.tour" ... done
* 108: Cost = 0_2457981, Time = 0.50 sec. 
Writing OUTPUT_TOUR_FILE: "baseline_results/cvrp_lkh/Vrp-Set-Li-n801/Vrp-Set-Li-n801-lkh/0.lkh1.tour" ... done
* 118: Cost = 0_2457978, Time = 0.51 sec. 
Writing OUTPUT_TOUR_FILE: "baseline_results/cvrp_lkh/Vrp-Set-Li-n801/Vrp-Set-Li-n801-lkh/0.lkh1.tour" ... done
* 120: Cost = 0_2457906, Time = 0.52 sec. 
Writing OUTPUT_TOUR_FILE: "baseline_results/cvrp_lkh/Vrp-Set-Li-n801/Vrp-Set-Li-n801-lkh/0.lkh1.tour" ... done
* 128: Cost = 0_2453395, Time = 0.54 sec. 
Writing OUTPUT_TOUR_FILE: "baseline_results/cvrp_lkh/Vrp-Set-Li-n801/Vrp-Set-Li-n801-lkh/0.lkh1.tour" ... done
* 130: Cost = 0_2453119, Time = 0.54 sec. 
Writing OUTPUT_TOUR_FILE: "baseline_results/cvrp_lkh/Vrp-Set-Li-n801/Vrp-Set-Li-n801-lkh/0.lkh1.tour" ... done
* 131: Cost = 0_2452676, Time = 0.54 sec. 
Writing OUTPUT_TOUR_FILE: "baseline_results/cvrp_lkh/Vrp-Set-Li-n801/Vrp-Set-Li-n801-lkh/0.lkh1.tour" ... done
* 140: Cost = 0_2452675, Time = 0.56 sec. 
Writing OUTPUT_TOUR_FILE: "baseline_results/cvrp_lkh/Vrp-Set-Li-n801/Vrp-Set-Li-n801-lkh/0.lkh1.tour" ... done
* 184: Cost = 0_2450761, Time = 0.62 sec. 
Writing OUTPUT_TOUR_FILE: "baseline_results/cvrp_lkh/Vrp-Set-Li-n801/Vrp-Set-Li-n801-lkh/0.lkh1.tour" ... done
* 220: Cost = 0_2450341, Time = 0.66 sec. 
Writing OUTPUT_TOUR_FILE: "baseline_results/cvrp_lkh/Vrp-Set-Li-n801/Vrp-Set-Li-n801-lkh/0.lkh1.tour" ... done
* 223: Cost = 0_2450337, Time = 0.66 sec. 
Writing OUTPUT_TOUR_FILE: "baseline_results/cvrp_lkh/Vrp-Set-Li-n801/Vrp-Set-Li-n801-lkh/0.lkh1.tour" ... done
* 227: Cost = 0_2449771, Time = 0.68 sec. 
Writing OUTPUT_TOUR_FILE: "baseline_results/cvrp_lkh/Vrp-Set-Li-n801/Vrp-Set-Li-n801-lkh/0.lkh1.tour" ... done
* 229: Cost = 0_2449769, Time = 0.68 sec. 
Writing OUTPUT_TOUR_FILE: "baseline_results/cvrp_lkh/Vrp-Set-Li-n801/Vrp-Set-Li-n801-lkh/0.lkh1.tour" ... done
* 233: Cost = 0_2449160, Time = 0.69 sec. 
Writing OUTPUT_TOUR_FILE: "baseline_results/cvrp_lkh/Vrp-Set-Li-n801/Vrp-Set-Li-n801-lkh/0.lkh1.tour" ... done
* 260: Cost = 0_2449102, Time = 0.75 sec. 
Writing OUTPUT_TOUR_FILE: "baseline_results/cvrp_lkh/Vrp-Set-Li-n801/Vrp-Set-Li-n801-lkh/0.lkh1.tour" ... done
* 270: Cost = 0_2449100, Time = 0.76 sec. 
Writing OUTPUT_TOUR_FILE: "baseline_results/cvrp_lkh/Vrp-Set-Li-n801/Vrp-Set-Li-n801-lkh/0.lkh1.tour" ... done
* 310: Cost = 0_2449099, Time = 0.81 sec. 
Writing OUTPUT_TOUR_FILE: "baseline_results/cvrp_lkh/Vrp-Set-Li-n801/Vrp-Set-Li-n801-lkh/0.lkh1.tour" ... done
* 332: Cost = 0_2448983, Time = 0.84 sec. 
Writing OUTPUT_TOUR_FILE: "baseline_results/cvrp_lkh/Vrp-Set-Li-n801/Vrp-Set-Li-n801-lkh/0.lkh1.tour" ... done
* 390: Cost = 0_2448442, Time = 0.91 sec. 
Writing OUTPUT_TOUR_FILE: "baseline_results/cvrp_lkh/Vrp-Set-Li-n801/Vrp-Set-Li-n801-lkh/0.lkh1.tour" ... done
* 405: Cost = 0_2448440, Time = 0.92 sec. 
Writing OUTPUT_TOUR_FILE: "baseline_results/cvrp_lkh/Vrp-Set-Li-n801/Vrp-Set-Li-n801-lkh/0.lkh1.tour" ... done
* 448: Cost = 0_2442178, Time = 0.97 sec. 
Writing OUTPUT_TOUR_FILE: "baseline_results/cvrp_lkh/Vrp-Set-Li-n801/Vrp-Set-Li-n801-lkh/0.lkh1.tour" ... done
* 454: Cost = 0_2441355, Time = 0.98 sec. 
Writing OUTPUT_TOUR_FILE: "baseline_results/cvrp_lkh/Vrp-Set-Li-n801/Vrp-Set-Li-n801-lkh/0.lkh1.tour" ... done
* 495: Cost = 0_2441354, Time = 1.04 sec. 
Writing OUTPUT_TOUR_FILE: "baseline_results/cvrp_lkh/Vrp-Set-Li-n801/Vrp-Set-Li-n801-lkh/0.lkh1.tour" ... done
* 507: Cost = 0_2441353, Time = 1.06 sec. 
Writing OUTPUT_TOUR_FILE: "baseline_results/cvrp_lkh/Vrp-Set-Li-n801/Vrp-Set-Li-n801-lkh/0.lkh1.tour" ... done
* 533: Cost = 0_2441352, Time = 1.09 sec. 
Writing OUTPUT_TOUR_FILE: "baseline_results/cvrp_lkh/Vrp-Set-Li-n801/Vrp-Set-Li-n801-lkh/0.lkh1.tour" ... done
* 573: Cost = 0_2441351, Time = 1.12 sec. 
Writing OUTPUT_TOUR_FILE: "baseline_results/cvrp_lkh/Vrp-Set-Li-n801/Vrp-Set-Li-n801-lkh/0.lkh1.tour" ... done
* 579: Cost = 0_2441350, Time = 1.12 sec. 
Writing OUTPUT_TOUR_FILE: "baseline_results/cvrp_lkh/Vrp-Set-Li-n801/Vrp-Set-Li-n801-lkh/0.lkh1.tour" ... done
* 634: Cost = 0_2441232, Time = 1.18 sec. 
Writing OUTPUT_TOUR_FILE: "baseline_results/cvrp_lkh/Vrp-Set-Li-n801/Vrp-Set-Li-n801-lkh/0.lkh1.tour" ... done
* 756: Cost = 0_2440715, Time = 1.28 sec. 
Writing OUTPUT_TOUR_FILE: "baseline_results/cvrp_lkh/Vrp-Set-Li-n801/Vrp-Set-Li-n801-lkh/0.lkh1.tour" ... done
* 821: Cost = 0_2440540, Time = 1.35 sec. 
Writing OUTPUT_TOUR_FILE: "baseline_results/cvrp_lkh/Vrp-Set-Li-n801/Vrp-Set-Li-n801-lkh/0.lkh1.tour" ... done
* 927: Cost = 0_2440265, Time = 1.54 sec. 
Writing OUTPUT_TOUR_FILE: "baseline_results/cvrp_lkh/Vrp-Set-Li-n801/Vrp-Set-Li-n801-lkh/0.lkh1.tour" ... done
* 973: Cost = 0_2440199, Time = 1.59 sec. 
Writing OUTPUT_TOUR_FILE: "baseline_results/cvrp_lkh/Vrp-Set-Li-n801/Vrp-Set-Li-n801-lkh/0.lkh1.tour" ... done
* 975: Cost = 0_2440055, Time = 1.60 sec. 
Writing OUTPUT_TOUR_FILE: "baseline_results/cvrp_lkh/Vrp-Set-Li-n801/Vrp-Set-Li-n801-lkh/0.lkh1.tour" ... done
* 1151: Cost = 0_2440053, Time = 1.79 sec. 
Writing OUTPUT_TOUR_FILE: "baseline_results/cvrp_lkh/Vrp-Set-Li-n801/Vrp-Set-Li-n801-lkh/0.lkh1.tour" ... done
* 1738: Cost = 0_2440052, Time = 2.50 sec. 
Writing OUTPUT_TOUR_FILE: "baseline_results/cvrp_lkh/Vrp-Set-Li-n801/Vrp-Set-Li-n801-lkh/0.lkh1.tour" ... done
* 1765: Cost = 0_2440051, Time = 2.54 sec. 
Writing OUTPUT_TOUR_FILE: "baseline_results/cvrp_lkh/Vrp-Set-Li-n801/Vrp-Set-Li-n801-lkh/0.lkh1.tour" ... done
* 2369: Cost = 0_2439783, Time = 3.32 sec. 
Writing OUTPUT_TOUR_FILE: "baseline_results/cvrp_lkh/Vrp-Set-Li-n801/Vrp-Set-Li-n801-lkh/0.lkh1.tour" ... done
* 2407: Cost = 0_2439542, Time = 3.36 sec. 
Writing OUTPUT_TOUR_FILE: "baseline_results/cvrp_lkh/Vrp-Set-Li-n801/Vrp-Set-Li-n801-lkh/0.lkh1.tour" ... done
* 4648: Cost = 0_2439538, Time = 6.10 sec. 
Writing OUTPUT_TOUR_FILE: "baseline_results/cvrp_lkh/Vrp-Set-Li-n801/Vrp-Set-Li-n801-lkh/0.lkh1.tour" ... done
* 6883: Cost = 0_2439537, Time = 8.46 sec. 
Writing OUTPUT_TOUR_FILE: "baseline_results/cvrp_lkh/Vrp-Set-Li-n801/Vrp-Set-Li-n801-lkh/0.lkh1.tour" ... done
Population:
  1: 0_2439537
Run 1: Cost = 0_2439537, Time = 12.37 sec. 

Successes/Runs = 0/1 
Cost.min = 2439537, Cost.avg = 2439537.00, Cost.max = 2439537
Gap.min = 0.0000%, Gap.avg = 0.0000%, Gap.max = 0.0000%
Penalty.min = 0, Penalty.avg = 0.00, Penalty.max = 0
Trials.min = 10000, Trials.avg = 10000.0, Trials.max = 10000
Time.min = 12.37 sec., Time.avg = 12.37 sec., Time.max = 12.37 sec.
Time.total = 13.04 sec.
  Size.min = 64, Size.max = 90, Penalty = 0
  Cost.min = 202659, Cost.max = 279453, Cost.sum = 2439537
Best CVRP solution:
  Cost = 0_2439537

