experiment/data/lkh-res/Vrp-Set-Li-n801/Vrp-Set-Li-n801-lkh/0.lkh1.tour
NAME : 0.2439537.tour
COMMENT : Length = 2439537
COMMENT : Found by LKH-3 [Keld Helsgaun] Tue Apr  9 02:28:42 2024
TYPE : TOUR
DIMENSION : 810
TOUR_SECTION
1
24
64
63
62
102
103
104
105
106
146
145
144
143
142
182
183
184
224
264
304
344
384
424
464
504
544
584
624
664
704
744
784
783
743
703
663
623
583
543
503
463
423
383
343
303
263
223
222
262
302
342
382
422
462
502
542
582
622
662
702
742
782
781
741
701
661
621
581
541
501
461
421
381
341
301
261
221
181
141
101
61
21
22
23
810
19
59
99
98
138
178
177
217
257
297
337
377
417
457
497
537
577
617
657
697
737
777
778
738
698
658
618
578
538
498
458
418
378
338
298
258
218
219
259
299
339
379
419
459
499
539
579
619
659
699
739
779
780
740
700
660
620
580
540
500
460
420
380
340
300
260
220
180
179
139
140
100
60
20
804
37
77
78
118
158
198
238
278
318
358
398
438
478
518
558
598
638
678
718
758
798
799
759
719
679
639
599
559
519
479
439
399
359
319
279
239
240
280
320
360
400
440
480
520
560
600
640
680
720
760
800
801
761
721
681
641
601
561
521
481
441
401
361
321
281
241
201
200
199
159
119
79
80
40
39
38
802
7
6
5
45
46
47
48
88
87
86
85
125
126
127
128
168
167
166
206
246
286
326
366
406
446
486
526
566
606
646
686
726
766
767
727
687
647
607
567
527
487
447
407
367
327
287
247
207
208
248
288
328
368
408
448
488
528
568
608
648
688
728
768
769
729
689
649
609
569
529
489
449
409
369
329
289
249
209
169
129
89
49
9
8
806
30
70
71
72
112
111
110
150
151
152
192
191
190
189
229
269
309
349
389
429
469
430
470
510
550
590
630
670
710
750
790
791
751
711
671
631
591
551
511
471
431
391
351
390
350
310
270
230
231
232
272
271
311
312
352
392
432
472
512
552
592
632
672
712
752
792
793
753
713
673
633
593
553
513
473
433
393
353
313
273
233
193
153
154
114
113
73
33
32
31
805
34
74
75
115
155
195
194
234
274
314
354
394
434
474
514
554
594
634
674
714
754
794
795
755
715
675
635
595
555
515
475
435
395
355
315
275
235
236
276
316
356
396
436
476
516
556
596
636
676
716
756
796
797
757
717
677
637
597
557
517
477
437
397
357
317
277
237
197
196
156
157
117
116
76
36
35
807
3
2
41
81
42
82
121
120
160
161
122
162
202
242
282
322
362
402
442
482
522
562
602
642
682
722
762
763
723
683
643
603
563
523
483
443
403
363
323
283
243
203
204
244
284
324
364
404
444
484
524
564
604
644
684
724
764
765
725
685
645
605
565
525
485
445
405
365
325
285
245
205
165
164
163
123
124
84
83
43
44
4
809
10
50
51
91
90
130
170
210
250
290
330
370
410
450
411
451
491
531
571
490
530
570
610
650
690
730
770
611
651
691
731
771
772
732
692
652
612
572
532
492
452
412
372
332
371
331
291
251
211
171
131
132
133
134
94
93
92
52
53
54
14
13
12
11
808
16
15
55
95
135
175
174
173
172
212
213
253
252
292
293
333
373
413
453
493
533
573
613
653
693
733
773
774
734
694
654
614
574
534
494
454
414
374
334
294
254
214
215
255
295
335
375
415
455
495
535
575
615
655
695
735
775
776
736
696
656
616
576
536
496
456
416
376
336
296
256
216
176
136
137
97
96
56
57
58
18
17
803
28
29
69
109
149
148
188
228
268
308
348
388
428
468
508
548
588
509
549
589
629
669
709
749
789
788
748
708
668
628
787
747
707
667
627
587
547
507
467
427
387
347
307
267
227
226
266
306
346
386
426
466
506
546
586
626
666
706
746
786
785
745
705
665
625
585
545
505
465
425
385
345
305
265
225
185
186
187
147
107
108
68
67
66
65
25
26
27
-1
EOF
